atsp/4-necklace.atsp
NAME : superperm 4
TYPE : ATSP
DIMENSION : 24
EDGE_WEIGHT_TYPE : EXPLICIT
EDGE_WEIGHT_FORMAT : FULL_MATRIX
NODE_COORD_TYPE : NO_COORDS
DISPLAY_DATA_TYPE : NO_DISPLAY
EDGE_WEIGHT_SECTION :
99999 4 4 4 4 4 4 4 4 1 4 4 4 4 4 4 2 2 3 3 3 3 3 3
4 99999 4 4 4 4 4 4 4 4 4 1 3 3 3 3 3 3 4 4 4 4 2 2
4 4 99999 4 4 4 4 4 4 4 2 2 4 4 4 1 4 4 3 3 3 3 3 3
4 4 4 99999 4 4 3 3 3 3 3 3 4 4 4 4 4 1 4 4 2 2 4 4
4 4 4 4 99999 4 4 4 2 2 4 4 3 3 3 3 3 3 4 4 4 1 4 4
4 4 4 4 4 99999 3 3 3 3 3 3 4 4 2 2 4 4 4 4 4 4 4 1
4 4 4 1 4 4 99999 4 4 4 4 4 4 4 4 4 2 2 3 3 3 3 3 3
4 4 4 4 4 1 4 99999 4 4 4 4 3 3 3 3 3 3 4 4 4 4 2 2
4 4 4 4 2 2 4 4 99999 4 4 4 4 1 4 4 4 4 3 3 3 3 3 3
3 3 3 3 3 3 4 4 4 99999 4 4 4 4 4 4 1 4 2 2 4 4 4 4
4 4 2 2 4 4 4 4 4 4 99999 4 3 3 3 3 3 3 4 1 4 4 4 4
3 3 3 3 3 3 4 4 4 4 4 99999 2 2 4 4 4 4 4 4 4 4 1 4
4 1 4 4 4 4 4 4 4 4 2 2 99999 4 4 4 4 4 3 3 3 3 3 3
4 4 4 4 1 4 3 3 3 3 3 3 4 99999 4 4 4 4 4 4 2 2 4 4
4 4 4 4 2 2 4 1 4 4 4 4 4 4 99999 4 4 4 3 3 3 3 3 3
3 3 3 3 3 3 4 4 4 4 1 4 4 4 4 99999 4 4 2 2 4 4 4 4
2 2 4 4 4 4 3 3 3 3 3 3 4 4 4 4 99999 4 1 4 4 4 4 4
3 3 3 3 3 3 2 2 4 4 4 4 4 4 4 4 4 99999 4 4 1 4 4 4
1 4 4 4 4 4 4 4 2 2 4 4 3 3 3 3 3 3 99999 4 4 4 4 4
4 4 1 4 4 4 3 3 3 3 3 3 4 4 2 2 4 4 4 99999 4 4 4 4
4 4 2 2 4 4 1 4 4 4 4 4 3 3 3 3 3 3 4 4 99999 4 4 4
3 3 3 3 3 3 4 4 1 4 4 4 2 2 4 4 4 4 4 4 4 99999 4 4
2 2 4 4 4 4 3 3 3 3 3 3 1 4 4 4 4 4 4 4 4 4 99999 4
3 3 3 3 3 3 2 2 4 4 4 4 4 4 1 4 4 4 4 4 4 4 4 99999
