tsp/4-necklace.tsp
NAME : superperm 4 (symmetrised)
TYPE : TSP
DIMENSION : 48
EDGE_WEIGHT_TYPE : EXPLICIT
EDGE_WEIGHT_FORMAT : UPPER_ROW
NODE_COORD_TYPE : NO_COORDS
DISPLAY_DATA_TYPE : NO_DISPLAY
EDGE_WEIGHT_SECTION :
99999 99999 99999 99999 99999 99999 99999 99999 99999 99999 99999 99999 99999 99999 99999 99999 99999 99999 99999 99999 99999 99999 99999 0 17 17 17 17 17 17 17 17 14 17 17 17 17 17 17 15 15 16 16 16 16 16 16
99999 99999 99999 99999 99999 99999 99999 99999 99999 99999 99999 99999 99999 99999 99999 99999 99999 99999 99999 99999 99999 99999 17 0 17 17 17 17 17 17 17 17 17 14 16 16 16 16 16 16 17 17 17 17 15 15
99999 99999 99999 99999 99999 99999 99999 99999 99999 99999 99999 99999 99999 99999 99999 99999 99999 99999 99999 99999 99999 17 17 0 17 17 17 17 17 17 17 15 15 17 17 17 14 17 17 16 16 16 16 16 16
99999 99999 99999 99999 99999 99999 99999 99999 99999 99999 99999 99999 99999 99999 99999 99999 99999 99999 99999 99999 17 17 17 0 17 17 16 16 16 16 16 16 17 17 17 17 17 14 17 17 15 15 17 17
99999 99999 99999 99999 99999 99999 99999 99999 99999 99999 99999 99999 99999 99999 99999 99999 99999 99999 99999 17 17 17 17 0 17 17 17 15 15 17 17 16 16 16 16 16 16 17 17 17 14 17 17
99999 99999 99999 99999 99999 99999 99999 99999 99999 99999 99999 99999 99999 99999 99999 99999 99999 99999 17 17 17 17 17 0 16 16 16 16 16 16 17 17 15 15 17 17 17 17 17 17 17 14
99999 99999 99999 99999 99999 99999 99999 99999 99999 99999 99999 99999 99999 99999 99999 99999 99999 17 17 17 14 17 17 0 17 17 17 17 17 17 17 17 17 15 15 16 16 16 16 16 16
99999 99999 99999 99999 99999 99999 99999 99999 99999 99999 99999 99999 99999 99999 99999 99999 17 17 17 17 17 14 17 0 17 17 17 17 16 16 16 16 16 16 17 17 17 17 15 15
99999 99999 99999 99999 99999 99999 99999 99999 99999 99999 99999 99999 99999 99999 99999 17 17 17 17 15 15 17 17 0 17 17 17 17 14 17 17 17 17 16 16 16 16 16 16
99999 99999 99999 99999 99999 99999 99999 99999 99999 99999 99999 99999 99999 99999 16 16 16 16 16 16 17 17 17 0 17 17 17 17 17 17 14 17 15 15 17 17 17 17
99999 99999 99999 99999 99999 99999 99999 99999 99999 99999 99999 99999 99999 17 17 15 15 17 17 17 17 17 17 0 17 16 16 16 16 16 16 17 14 17 17 17 17
99999 99999 99999 99999 99999 99999 99999 99999 99999 99999 99999 99999 16 16 16 16 16 16 17 17 17 17 17 0 15 15 17 17 17 17 17 17 17 17 14 17
99999 99999 99999 99999 99999 99999 99999 99999 99999 99999 99999 17 14 17 17 17 17 17 17 17 17 15 15 0 17 17 17 17 17 16 16 16 16 16 16
99999 99999 99999 99999 99999 99999 99999 99999 99999 99999 17 17 17 17 14 17 16 16 16 16 16 16 17 0 17 17 17 17 17 17 15 15 17 17
99999 99999 99999 99999 99999 99999 99999 99999 99999 17 17 17 17 15 15 17 14 17 17 17 17 17 17 0 17 17 17 16 16 16 16 16 16
99999 99999 99999 99999 99999 99999 99999 99999 16 16 16 16 16 16 17 17 17 17 14 17 17 17 17 0 17 17 15 15 17 17 17 17
99999 99999 99999 99999 99999 99999 99999 15 15 17 17 17 17 16 16 16 16 16 16 17 17 17 17 0 17 14 17 17 17 17 17
99999 99999 99999 99999 99999 99999 16 16 16 16 16 16 15 15 17 17 17 17 17 17 17 17 17 0 17 17 14 17 17 17
99999 99999 99999 99999 99999 14 17 17 17 17 17 17 17 15 15 17 17 16 16 16 16 16 16 0 17 17 17 17 17
99999 99999 99999 99999 17 17 14 17 17 17 16 16 16 16 16 16 17 17 15 15 17 17 17 0 17 17 17 17
99999 99999 99999 17 17 15 15 17 17 14 17 17 17 17 17 16 16 16 16 16 16 17 17 0 17 17 17
99999 99999 16 16 16 16 16 16 17 17 14 17 17 17 15 15 17 17 17 17 17 17 17 0 17 17
99999 15 15 17 17 17 17 16 16 16 16 16 16 14 17 17 17 17 17 17 17 17 17 0 17
16 16 16 16 16 16 15 15 17 17 17 17 17 17 14 17 17 17 17 17 17 17 17 0
99999 99999 99999 99999 99999 99999 99999 99999 99999 99999 99999 99999 99999 99999 99999 99999 99999 99999 99999 99999 99999 99999 99999
99999 99999 99999 99999 99999 99999 99999 99999 99999 99999 99999 99999 99999 99999 99999 99999 99999 99999 99999 99999 99999 99999
99999 99999 99999 99999 99999 99999 99999 99999 99999 99999 99999 99999 99999 99999 99999 99999 99999 99999 99999 99999 99999
99999 99999 99999 99999 99999 99999 99999 99999 99999 99999 99999 99999 99999 99999 99999 99999 99999 99999 99999 99999
99999 99999 99999 99999 99999 99999 99999 99999 99999 99999 99999 99999 99999 99999 99999 99999 99999 99999 99999
99999 99999 99999 99999 99999 99999 99999 99999 99999 99999 99999 99999 99999 99999 99999 99999 99999 99999
99999 99999 99999 99999 99999 99999 99999 99999 99999 99999 99999 99999 99999 99999 99999 99999 99999
99999 99999 99999 99999 99999 99999 99999 99999 99999 99999 99999 99999 99999 99999 99999 99999
99999 99999 99999 99999 99999 99999 99999 99999 99999 99999 99999 99999 99999 99999 99999
99999 99999 99999 99999 99999 99999 99999 99999 99999 99999 99999 99999 99999 99999
99999 99999 99999 99999 99999 99999 99999 99999 99999 99999 99999 99999 99999
99999 99999 99999 99999 99999 99999 99999 99999 99999 99999 99999 99999
99999 99999 99999 99999 99999 99999 99999 99999 99999 99999 99999
99999 99999 99999 99999 99999 99999 99999 99999 99999 99999
99999 99999 99999 99999 99999 99999 99999 99999 99999
99999 99999 99999 99999 99999 99999 99999 99999
99999 99999 99999 99999 99999 99999 99999
99999 99999 99999 99999 99999 99999
99999 99999 99999 99999 99999
99999 99999 99999 99999
99999 99999 99999
99999 99999
99999
